500
125 125
1 87 596
2 87 591
3 87 664
4 86 236
5 86 414
6 86 132
7 86 557
8 86 792
9 86 58
10 86 847
11 86 75
12 86 513
13 85 469
14 85 89
15 85 980
16 85 830
17 85 614
18 84 508
19 84 602
20 84 899
21 84 809
22 84 508
23 84 637
24 84 800
25 83 858
26 83 755
27 83 990
28 83 870
29 83 922
30 83 195
31 83 455
32 83 997
33 83 213
34 82 425
35 82 114
36 82 751
37 82 474
38 82 868
39 82 705
40 82 976
41 82 823
42 81 136
43 81 226
44 81 177
45 81 551
46 80 635
47 80 42
48 80 601
49 80 883
50 80 540
51 79 256
52 79 935
53 79 399
54 79 596
55 79 963
56 79 672
57 78 456
58 78 709
59 78 365
60 78 594
61 78 391
62 78 525
63 78 452
64 78 219
65 77 934
66 77 669
67 77 938
68 77 353
69 76 183
70 76 609
71 76 812
72 76 193
73 76 306
74 76 279
75 76 84
76 75 405
77 75 452
78 75 786
79 75 157
80 75 710
81 75 998
82 75 270
83 75 529
84 74 696
85 74 92
86 74 667
87 74 329
88 74 205
89 73 711
90 73 899
91 73 607
92 73 163
93 73 954
94 73 485
95 73 788
96 72 601
97 72 349
98 72 88
99 72 264
100 72 939
101 72 542
102 72 494
103 72 352
104 72 754
105 71 757
106 71 54
107 71 539
108 71 535
109 71 699
110 71 656
111 71 821
112 71 167
113 70 799
114 70 85
115 70 460
116 70 262
117 70 19
118 70 189
119 70 329
120 70 183
121 70 45
122 70 849
123 69 618
124 69 641
125 69 310
126 69 594
127 69 902
128 69 480
129 69 837
130 68 452
131 68 680
132 68 110
133 68 577
134 67 966
135 67 904
136 67 315
137 67 738
138 67 119
139 67 122
140 66 176
141 66 812
142 66 677
143 66 793
144 66 84
145 66 262
146 66 122
147 65 101
148 65 818
149 65 297
150 65 263
151 65 796
152 65 43
153 65 927
154 64 269
155 64 586
156 64 706
157 64 465
158 64 632
159 64 619
160 63 88
161 63 273
162 63 887
163 63 731
164 63 21
165 63 718
166 63 19
167 63 81
168 63 5
169 63 938
170 63 118
171 62 916
172 62 395
173 62 982
174 62 5
175 62 405
176 62 584
177 62 861
178 61 395
179 61 273
180 61 210
181 61 291
182 61 951
183 61 792
184 61 707
185 61 864
186 61 530
187 61 577
188 60 335
189 60 694
190 60 488
191 60 838
192 60 432
193 60 208
194 60 50
195 60 182
196 60 119
197 59 511
198 59 122
199 59 595
200 59 25
201 59 765
202 59 899
203 59 309
204 59 715
205 59 517
206 58 615
207 58 40
208 58 116
209 58 522
210 58 556
211 58 193
212 58 33
213 57 341
214 57 299
215 57 395
216 56 810
217 56 294
218 56 477
219 56 112
220 55 742
221 55 584
222 55 920
223 55 989
224 55 948
225 54 286
226 54 201
227 54 51
228 54 279
229 54 441
230 54 233
231 54 515
232 53 624
233 53 1000
234 53 26
235 53 635
236 53 40
237 53 500
238 53 539
239 53 477
240 52 311
241 52 200
242 52 720
243 52 192
244 52 38
245 52 159
246 52 486
247 52 640
248 52 809
249 52 792
250 52 189
251 51 244
252 51 380
253 51 637
254 51 32
255 50 615
256 50 960
257 50 703
258 50 817
259 50 339
260 50 741
261 50 676
262 50 295
263 49 865
264 49 242
265 49 895
266 49 151
267 49 152
268 49 638
269 49 184
270 49 213
271 49 372
272 49 769
273 48 576
274 48 821
275 48 293
276 48 184
277 48 943
278 48 99
279 47 616
280 47 283
281 47 27
282 47 768
283 47 110
284 47 48
285 46 130
286 46 383
287 46 504
288 46 846
289 46 479
290 46 954
291 46 255
292 45 974
293 45 477
294 45 790
295 45 185
296 45 921
297 45 155
298 44 105
299 44 944
300 44 38
301 44 594
302 44 107
303 44 248
304 44 162
305 44 14
306 43 414
307 43 163
308 43 653
309 43 896
310 43 107
311 42 475
312 42 79
313 42 460
314 42 712
315 41 875
316 41 774
317 41 84
318 41 894
319 41 675
320 41 305
321 40 498
322 40 627
323 40 746
324 40 453
325 40 330
326 40 491
327 40 254
328 40 52
329 40 473
330 40 146
331 39 905
332 39 774
333 39 221
334 39 519
335 39 144
336 38 979
337 38 33
338 38 34
339 38 667
340 38 519
341 38 926
342 37 697
343 37 488
344 37 634
345 37 10
346 37 380
347 37 967
348 37 63
349 37 303
350 37 381
351 37 891
352 36 994
353 36 705
354 35 512
355 35 79
356 35 253
357 35 453
358 34 282
359 34 287
360 34 300
361 34 17
362 34 572
363 34 793
364 33 368
365 33 706
366 33 619
367 33 164
368 33 665
369 33 952
370 32 261
371 32 463
372 32 85
373 32 538
374 32 574
375 32 499
376 31 873
377 31 665
378 31 822
379 31 319
380 30 621
381 30 963
382 30 376
383 30 756
384 30 703
385 30 662
386 29 684
387 29 439
388 29 57
389 29 574
390 29 23
391 28 915
392 28 355
393 28 684
394 28 433
395 28 136
396 28 220
397 28 533
398 28 114
399 28 556
400 28 1
401 27 690
402 27 271
403 27 847
404 26 127
405 26 960
406 26 739
407 26 741
408 26 628
409 26 928
410 26 512
411 26 263
412 26 498
413 26 718
414 25 162
415 25 514
416 25 452
417 25 837
418 25 520
419 25 370
420 24 850
421 24 592
422 24 953
423 24 481
424 23 188
425 23 969
426 23 871
427 23 999
428 23 245
429 23 541
430 23 693
431 22 545
432 22 550
433 22 935
434 22 319
435 22 763
436 21 226
437 21 160
438 21 816
439 21 885
440 21 681
441 21 324
442 20 725
443 20 436
444 20 89
445 20 431
446 19 313
447 19 730
448 19 468
449 19 274
450 19 174
451 19 26
452 19 954
453 19 606
454 19 276
455 18 932
456 18 915
457 18 199
458 18 200
459 18 257
460 18 530
461 17 935
462 17 547
463 17 608
464 17 292
465 17 360
466 17 92
467 17 863
468 17 542
469 16 551
470 16 431
471 16 240
472 15 252
473 15 5
474 15 343
475 15 580
476 15 432
477 15 63
478 15 710
479 15 259
480 15 151
481 14 698
482 14 500
483 14 701
484 14 488
485 14 842
486 13 989
487 13 669
488 13 58
489 13 75
490 13 744
491 13 404
492 13 98
493 13 227
494 13 466
495 13 300
496 12 901
497 12 542
498 12 175
499 12 259
500 12 538
